
Gurobi 11.0.3 (linux64) logging started Fri Nov 22 14:41:45 2024

Set parameter LogFile to value "/home/yihong/Coding/OR_SUC/SUC_results_bigM100000_thread4/case24_ieee_rts_theta0.5_epsilon0.025_gurobi_seed1010000_num_gen100_N_WDR100_load_scaling_factor1_exact_T16quadra_cost.txt"
Set parameter TimeLimit to value 3600
Gurobi Optimizer version 11.0.3 build v11.0.3rc0 (linux64 - "Ubuntu 20.04.6 LTS")

CPU model: AMD EPYC 7532 32-Core Processor, instruction set [SSE2|AVX|AVX2]
Thread count: 64 physical cores, 128 logical processors, using up to 4 threads

Optimize a model with 34563 rows, 20041 columns and 474826 nonzeros
Model fingerprint: 0x7959006e
Model has 1600 quadratic constraints
Variable types: 18341 continuous, 1700 integer (1700 binary)
Coefficient statistics:
  Matrix range     [3e-04, 1e+05]
  QMatrix range    [2e-03, 8e-03]
  QLMatrix range   [4e-02, 6e+01]
  Objective range  [1e+00, 1e+00]
  Bounds range     [1e+00, 1e+00]
  RHS range        [1e+00, 1e+05]
Presolve removed 28006 rows and 8749 columns
Presolve time: 0.18s
Presolved: 6557 rows, 11292 columns, 44055 nonzeros
Presolved model has 1600 quadratic constraint(s)
Variable types: 9650 continuous, 1642 integer (1642 binary)

Root relaxation: objective 5.025845e+04, 5181 iterations, 0.10 seconds (0.13 work units)

    Nodes    |    Current Node    |     Objective Bounds      |     Work
 Expl Unexpl |  Obj  Depth IntInf | Incumbent    BestBd   Gap | It/Node Time

     0     0 50258.4506    0    3          - 50258.4506      -     -    0s
     0     0 396113.497    0  302          - 396113.497      -     -    0s
     0     0 536269.632    0  258          - 536269.632      -     -    0s
     0     0 536420.870    0  224          - 536420.870      -     -    0s
     0     0 536833.282    0  208          - 536833.282      -     -    0s
     0     0 536991.699    0  204          - 536991.699      -     -    1s
     0     0 536999.101    0  204          - 536999.101      -     -    1s
     0     2 536999.108    0  204          - 536999.108      -     -    3s
H  253   267                    537209.64759 537032.160  0.03%  13.7    4s
*  253   267              84    537209.64759 537032.160  0.03%  13.8    4s

Cutting planes:
  Gomory: 52
  Implied bound: 271
  MIR: 46
  Flow cover: 32

Explored 306 nodes (16987 simplex iterations) in 5.16 seconds (4.72 work units)
Thread count was 4 (of 128 available processors)

Solution count 2: 537210 537210 

Optimal solution found (tolerance 1.00e-03)
Warning: max constraint violation (6.1483e-07) exceeds tolerance
Best objective 5.372096475875e+05, best bound 5.370321595098e+05, gap 0.0330%
